Max: xS1 + xS2   ;



xS1    = x1D + x13   ;

xSD + x1D    = xD3 + xD4   ;

x13 + xD3    = x34 + x35   ;

xD4 + x34    = x45 + x46   ;

x35 + x45    = x56 + x57   ;

x46 + x56    = x67 + x68   ;

x57 + x67    = x78 + x79   ;

x68 + x78    = x89 + x81S   ;

x79 + x89    = x91S + x911   ;

x81S + x91S    = x1S11 + x1S1D   ;

x911 + x1S11    = x111D + x1113   ;

x1S1D + x111D    = x1D13 + x1D14   ;

x1113 + x1D13    = x1314 + x1315   ;

x1D14 + x1314    = x1415 + x1416   ;

x1315 + x1415    = x1516 + x1517   ;

x1416 + x1516    = x1617 + x1618   ;

x1517 + x1617    = x1718 + x1719   ;

x1618 + x1718    = x1819 + x18DS   ;

x1719 + x1819    = x19DS + x19D1   ;

x18DS + x19DS    = xDSD1 + xDSDD   ;

x19D1 + xDSD1    = xD1DD + xD1D3   ;

xDSDD + xD1DD    = xDDD3 + xDDD4   ;

xD1D3 + xDDD3    = xD3D4 + xD3D5   ;

xDDD4 + xD3D4    = xD4D5 + xD4D6 ;



xS1 <= 42;
xS2 <= 468;
x12 <= 335;
x13 <= 1;
x23 <= 170;
x24 <= 225;
x34 <= 479;
x35 <= 359;
x45 <= 463;
x46 <= 465;
x56 <= 206;
x57 <= 146;
x67 <= 282;
x68 <= 328;
x78 <= 462;
x79 <= 492;
x89 <= 496;
x810 <= 443;
x910 <= 328;
x911 <= 437;
x1011 <= 392;
x1012 <= 105;
x1112 <= 403;
x1113 <= 154;
x1213 <= 293;
x1214 <= 383;
x1314 <= 422;
x1315 <= 217;
x1415 <= 219;
x1416 <= 396;
x1516 <= 448;
x1517 <= 227;
x1617 <= 272;
x1618 <= 39;
x1718 <= 370;
x1719 <= 413;
x1819 <= 168;
x1820 <= 300;
x1920 <= 36;
x1921 <= 395;
x2021 <= 204;
x2022 <= 312;
x2122 <= 323;
x2123 <= 334;
x2223 <= 174;
x2224 <= 165;
x2324 <= 142;
x2426 <= 369;
x23D <= 212;
x24D <= 254;
